c read Graph
c width = 68
c time = 111 ms
c width = 11
c time = 169 ms
c width = 10
c time = 227 ms
c width = 9
c time = 3011 ms
c width = 9
c time = 4881 ms
s td 71 10 81
b 1 1 2 10
b 2 2 3 10 11
b 3 7 8 17 18
b 4 3 10 11 19
b 5 7 17 18 27
b 6 55 64 65 74
b 7 63 71 72 80
b 8 55 65 74 75
b 9 63 71 79 80
b 10 3 4 5 13
b 11 3 5 12 13 20 28
b 12 5 12 13 20 22 28 30
b 13 5 13 20 22 28 30 38
b 14 20 28 29 30 38
b 15 5 13 22 28 30 38 46
b 16 5 13 15 22 24 30 32 38 46
b 17 5 13 15 22 23 24 32
b 18 5 13 14 15 23
b 19 5 15 22 24 30 32 38 40 46
b 20 22 30 31 32 40
b 21 5 15 24 30 32 38 40 46 48
b 22 30 38 39 40 48
b 23 5 15 24 32 38 40 46 48 56
b 24 38 46 47 48 56
b 25 28 37 38 46
b 26 12 20 21 22 30
b 27 3 12 19 20 28
b 28 3 11 12 19 20
b 29 5 15 24 32 40 46 48 56 66 76
b 30 5 15 24 32 40 48 56 58 66 76
b 31 5 15 24 32 40 48 50 58 66 76
b 32 5 15 24 32 40 42 50 58 66 76
b 33 5 15 24 32 34 42 50 58 66 76
b 34 5 15 24 34 42 50 58 66 68 76
b 35 5 15 24 34 42 50 58 60 68 76
b 36 5 15 24 34 42 50 52 60 68 76
b 37 5 15 24 34 42 44 52 60 68 76
b 38 5 15 24 34 44 52 54 60 68 76
b 39 44 52 54 60 68 70 76 78
b 40 68 70 76 77 78
b 41 24 32 33 34 42
b 42 5 15 24 34 36 44 54
b 43 5 15 24 26 34 36 44
b 44 5 15 16 24 26 34 36
b 45 5 7 15 16 26 36
b 46 5 6 7 15
b 47 7 16 26 27 36
b 48 7 16 17 26 27
b 49 16 24 25 26 34
b 50 26 34 35 36 44
b 51 36 44 45 54
b 52 34 42 43 44 52
b 53 44 52 54 60 62 70 78
b 54 44 52 53 54 62
b 55 54 62 70 78 79
b 56 54 62 63 70 79
b 57 62 63 70 71 79
b 58 52 60 61 62 70
b 59 60 68 69 70 78
b 60 42 50 51 52 60
b 61 50 58 59 60 68
b 62 58 66 67 68 76
b 63 32 40 41 42 50
b 64 40 48 49 50 58
b 65 48 56 57 58 66
b 66 46 56 66 75 76
b 67 46 55 56 66 75
b 68 55 56 65 66 75
b 69 72 80 81
b 70 64 73 74
b 71 8 9 18
1 2
2 4
3 71
3 5
4 28
5 48
6 70
6 8
7 69
7 9
8 68
9 57
10 11
11 27
11 12
12 26
12 13
13 15
13 14
15 25
15 16
16 19
16 17
17 18
19 21
19 20
21 23
21 22
23 29
23 24
27 28
29 66
29 30
30 65
30 31
31 64
31 32
32 63
32 33
33 41
33 34
34 62
34 35
35 61
35 36
36 60
36 37
37 52
37 38
38 42
38 39
39 53
39 59
39 40
42 51
42 43
43 50
43 44
44 49
44 45
45 47
45 46
47 48
53 58
53 54
53 55
55 56
56 57
66 67
67 68
